TOUR:
 1 36 23 16 47 37 58 50 10 5 53 66 22 63 59 38 69 31 13 29 70 35 57 15 24 19 55 49 26 8 28 3 32 7 2 4 18 42 41 6 52 60 12 34 21 17 43 68 44 14 20 30 46 27 9 40 61 45 25 39 62 54 33 67 48 11 56 51 65 64
COST = 738
